objective value:                      2.6867614801127
x(0,12,0)                                           1 	(obj:0)
x(1,9,0)                                            1 	(obj:0)
x(2,3,0)                                            1 	(obj:0)
x(3,4,0)                                            1 	(obj:0)
x(4,1,0)                                            1 	(obj:0)
x(9,0,0)                                            1 	(obj:0)
x(12,2,0)                                           1 	(obj:0)
xc(0,5)                                             1 	(obj:0)
xc(1,12)                                            1 	(obj:0)
xc(2,1)                                             1 	(obj:0)
u(0,0)                                2.2860289830797 	(obj:0)
u(1,0)                              0.761556194781098 	(obj:0)
u(3,0)                              0.405325986880899 	(obj:0)
u(4,0)                              0.491085629356298 	(obj:0)
u(6,0)                                2.6867614801127 	(obj:0)
u(8,0)                                2.6867614801127 	(obj:0)
u(9,0)                                1.3338072640886 	(obj:0)
u(10,0)                               2.6867614801127 	(obj:0)
u(11,0)                               2.6867614801127 	(obj:0)
u(12,0)                               2.6867614801127 	(obj:0)
u(13,0)                               2.6867614801127 	(obj:0)
u(14,0)                               2.6867614801127 	(obj:0)
u(15,0)                               2.6867614801127 	(obj:0)
u(16,0)                               2.6867614801127 	(obj:0)
u(17,0)                               2.6867614801127 	(obj:0)
u(18,0)                               2.6867614801127 	(obj:0)
u(19,0)                               2.6867614801127 	(obj:0)
f(0,12,0)                                           1 	(obj:0)
f(1,9,0)                                            1 	(obj:0)
f(1,9,1)                                            1 	(obj:0)
f(1,9,2)                                            1 	(obj:0)
f(1,9,3)                                            1 	(obj:0)
f(1,9,4)                                            1 	(obj:0)
f(1,12,1)                                           1 	(obj:0)
f(1,12,2)                                           1 	(obj:0)
f(1,12,3)                                           1 	(obj:0)
f(1,12,4)                                           1 	(obj:0)
f(2,1,0)                                            1 	(obj:0)
f(2,1,2)                                            1 	(obj:0)
f(2,1,3)                                            1 	(obj:0)
f(2,1,4)                                            1 	(obj:0)
f(2,3,1)                                            1 	(obj:0)
f(2,3,2)                                            1 	(obj:0)
f(3,4,1)                                            1 	(obj:0)
f(3,4,2)                                            1 	(obj:0)
f(3,4,3)                                            1 	(obj:0)
f(4,1,1)                                            1 	(obj:0)
f(4,1,2)                                            1 	(obj:0)
f(4,1,3)                                            1 	(obj:0)
f(4,1,4)                                            1 	(obj:0)
f(12,2,0)                                           1 	(obj:0)
f(12,2,1)                                           1 	(obj:0)
f(12,2,2)                                           1 	(obj:0)
f(12,2,3)                                           1 	(obj:0)
f(12,2,4)                                           1 	(obj:0)
z_r(0,)                               2.6867614801127 	(obj:0)
z                                     2.6867614801127 	(obj:1)
